webassembly/ejemplos_dzn/6/folder6_json_33.dzn
TERM = { '.', 's(2)', 's(5)', 's(4)', 'in_1', 'local_1', 'in_2', 's(1)', 's(0)', 's(3)', 'in_0'};
null = '.';
s = 6;
n = 9;
ndeps = 2;
max_registers_sz = 3;
NR = 0;
registers = [| |];
dependencies = [|'i32.store8_0', 'i32.load_1', |'i32.load_1', 'call[function_index(0)]_3'|];
GET_ENUM = { GET1, GET2, GET3};
SET_ENUM = { SET1, SET2, SET3};
TEE_ENUM = { TEE1, TEE2, TEE3};
N = 6;
OP = { 'i32.add_0', 'i32.add_1', 'call[function_index(0)]_3', 'i32.store8_0', 'i32.load_1', 'local.get_0' };
in_ops = [2, 2, 1, 2, 1, 0 ];
out_ops = [1, 1, 3, 0, 1, 1 ];
in1 = ['s(3)', 's(4)', 'local_1', 'in_0', 'in_2', '.' ];
in2 = ['s(2)', 's(1)', '.', 'in_1', '.', '.' ];
in3 = ['.', '.', '.', '.', '.', '.' ];
out1 = ['s(4)', 's(5)', 's(3)', '.', 's(0)', 'local_1' ];
out2 = ['.', '.', 's(2)', '.', '.', '.' ];
out3 = ['.', '.', 's(1)', '.', '.', '.' ];
comm = [true, true, false, false, false, false ];
gas = [1, 1, 1, 1, 1, 1 ];
sz = [1, 1, 1, 1, 1, 1 ];
stor = [false, false, true, true, false, false ];
lb = [ 1, 1, 1, 1, 1, 1 ];
ub = [ 6, 6, 6, 6, 6, 6 ];
startstack = [ 'in_0', 'in_1', 'in_2', null, null, null, null, null, null ];
endstack = [ 's(5)', 's(0)', null, null, null, null, null, null, null ];
